p cnf 133 336
c weights 1.0 1.0 2.718281828459045 0.36787944117144233 2.718281828459045 0.36787944117144233 1.0 1.0 2.718281828459045 0.36787944117144233 2.718281828459045 0.36787944117144233 1.0 1.0 2.718281828459045 0.36787944117144233 2.718281828459045 0.36787944117144233 1.0 1.0 2.718281828459045 0.36787944117144233 2.718281828459045 0.36787944117144233 1.0 1.0 2.718281828459045 0.36787944117144233 2.718281828459045 0.36787944117144233 1.0 1.0 2.718281828459045 0.36787944117144233 2.718281828459045 0.36787944117144233 1.0 1.0 2.718281828459045 0.36787944117144233 1.0 1.0 2.718281828459045 0.36787944117144233 2.718281828459045 0.36787944117144233 1.0 1.0 2.718281828459045 0.36787944117144233 2.718281828459045 0.36787944117144233 1.0 1.0 2.718281828459045 0.36787944117144233 2.718281828459045 0.36787944117144233 1.0 1.0 2.718281828459045 0.36787944117144233 2.718281828459045 0.36787944117144233 1.0 1.0 2.718281828459045 0.36787944117144233 2.718281828459045 0.36787944117144233 1.0 1.0 2.718281828459045 0.36787944117144233 2.718281828459045 0.36787944117144233 1.0 1.0 2.718281828459045 0.36787944117144233 1.0 1.0 2.718281828459045 0.36787944117144233 2.718281828459045 0.36787944117144233 1.0 1.0 2.718281828459045 0.36787944117144233 2.718281828459045 0.36787944117144233 1.0 1.0 2.718281828459045 0.36787944117144233 2.718281828459045 0.36787944117144233 1.0 1.0 2.718281828459045 0.36787944117144233 2.718281828459045 0.36787944117144233 1.0 1.0 2.718281828459045 0.36787944117144233 2.718281828459045 0.36787944117144233 1.0 1.0 2.718281828459045 0.36787944117144233 2.718281828459045 0.36787944117144233 1.0 1.0 2.718281828459045 0.36787944117144233 1.0 1.0 2.718281828459045 0.36787944117144233 2.718281828459045 0.36787944117144233 1.0 1.0 2.718281828459045 0.36787944117144233 2.718281828459045 0.36787944117144233 1.0 1.0 2.718281828459045 0.36787944117144233 2.718281828459045 0.36787944117144233 1.0 1.0 2.718281828459045 0.36787944117144233 2.718281828459045 0.36787944117144233 1.0 1.0 2.718281828459045 0.36787944117144233 2.718281828459045 0.36787944117144233 1.0 1.0 2.718281828459045 0.36787944117144233 2.718281828459045 0.36787944117144233 1.0 1.0 2.718281828459045 0.36787944117144233 1.0 1.0 2.718281828459045 0.36787944117144233 2.718281828459045 0.36787944117144233 1.0 1.0 2.718281828459045 0.36787944117144233 2.718281828459045 0.36787944117144233 1.0 1.0 2.718281828459045 0.36787944117144233 2.718281828459045 0.36787944117144233 1.0 1.0 2.718281828459045 0.36787944117144233 2.718281828459045 0.36787944117144233 1.0 1.0 2.718281828459045 0.36787944117144233 2.718281828459045 0.36787944117144233 1.0 1.0 2.718281828459045 0.36787944117144233 2.718281828459045 0.36787944117144233 1.0 1.0 2.718281828459045 0.36787944117144233 1.0 1.0 2.718281828459045 0.36787944117144233 2.718281828459045 0.36787944117144233 1.0 1.0 2.718281828459045 0.36787944117144233 2.718281828459045 0.36787944117144233 1.0 1.0 2.718281828459045 0.36787944117144233 2.718281828459045 0.36787944117144233 1.0 1.0 2.718281828459045 0.36787944117144233 2.718281828459045 0.36787944117144233 1.0 1.0 2.718281828459045 0.36787944117144233 2.718281828459045 0.36787944117144233 1.0 1.0 2.718281828459045 0.36787944117144233 2.718281828459045 0.36787944117144233 1.0 1.0 2.718281828459045 0.36787944117144233 1.0 1.0 2.718281828459045 0.36787944117144233 1.0 1.0 2.718281828459045 0.36787944117144233 1.0 1.0 2.718281828459045 0.36787944117144233 1.0 1.0 2.718281828459045 0.36787944117144233 1.0 1.0 2.718281828459045 0.36787944117144233 1.0 1.0 2.718281828459045 0.36787944117144233 1.0 1.0
2 1 4 0
2 -1 -4 0
-2 1 -4 0
-2 -1 4 0
3 1 21 0
3 -1 -21 0
-3 1 -21 0
-3 -1 21 0
5 4 7 0
5 -4 -7 0
-5 4 -7 0
-5 -4 7 0
6 4 24 0
6 -4 -24 0
-6 4 -24 0
-6 -4 24 0
8 7 10 0
8 -7 -10 0
-8 7 -10 0
-8 -7 10 0
9 7 27 0
9 -7 -27 0
-9 7 -27 0
-9 -7 27 0
11 10 13 0
11 -10 -13 0
-11 10 -13 0
-11 -10 13 0
12 10 30 0
12 -10 -30 0
-12 10 -30 0
-12 -10 30 0
14 13 16 0
14 -13 -16 0
-14 13 -16 0
-14 -13 16 0
15 13 33 0
15 -13 -33 0
-15 13 -33 0
-15 -13 33 0
17 16 19 0
17 -16 -19 0
-17 16 -19 0
-17 -16 19 0
18 16 36 0
18 -16 -36 0
-18 16 -36 0
-18 -16 36 0
20 19 39 0
20 -19 -39 0
-20 19 -39 0
-20 -19 39 0
22 21 24 0
22 -21 -24 0
-22 21 -24 0
-22 -21 24 0
23 21 41 0
23 -21 -41 0
-23 21 -41 0
-23 -21 41 0
25 24 27 0
25 -24 -27 0
-25 24 -27 0
-25 -24 27 0
26 24 44 0
26 -24 -44 0
-26 24 -44 0
-26 -24 44 0
28 27 30 0
28 -27 -30 0
-28 27 -30 0
-28 -27 30 0
29 27 47 0
29 -27 -47 0
-29 27 -47 0
-29 -27 47 0
31 30 33 0
31 -30 -33 0
-31 30 -33 0
-31 -30 33 0
32 30 50 0
32 -30 -50 0
-32 30 -50 0
-32 -30 50 0
34 33 36 0
34 -33 -36 0
-34 33 -36 0
-34 -33 36 0
35 33 53 0
35 -33 -53 0
-35 33 -53 0
-35 -33 53 0
37 36 39 0
37 -36 -39 0
-37 36 -39 0
-37 -36 39 0
38 36 56 0
38 -36 -56 0
-38 36 -56 0
-38 -36 56 0
40 39 59 0
40 -39 -59 0
-40 39 -59 0
-40 -39 59 0
42 41 44 0
42 -41 -44 0
-42 41 -44 0
-42 -41 44 0
43 41 61 0
43 -41 -61 0
-43 41 -61 0
-43 -41 61 0
45 44 47 0
45 -44 -47 0
-45 44 -47 0
-45 -44 47 0
46 44 64 0
46 -44 -64 0
-46 44 -64 0
-46 -44 64 0
48 47 50 0
48 -47 -50 0
-48 47 -50 0
-48 -47 50 0
49 47 67 0
49 -47 -67 0
-49 47 -67 0
-49 -47 67 0
51 50 53 0
51 -50 -53 0
-51 50 -53 0
-51 -50 53 0
52 50 70 0
52 -50 -70 0
-52 50 -70 0
-52 -50 70 0
54 53 56 0
54 -53 -56 0
-54 53 -56 0
-54 -53 56 0
55 53 73 0
55 -53 -73 0
-55 53 -73 0
-55 -53 73 0
57 56 59 0
57 -56 -59 0
-57 56 -59 0
-57 -56 59 0
58 56 76 0
58 -56 -76 0
-58 56 -76 0
-58 -56 76 0
60 59 79 0
60 -59 -79 0
-60 59 -79 0
-60 -59 79 0
62 61 64 0
62 -61 -64 0
-62 61 -64 0
-62 -61 64 0
63 61 81 0
63 -61 -81 0
-63 61 -81 0
-63 -61 81 0
65 64 67 0
65 -64 -67 0
-65 64 -67 0
-65 -64 67 0
66 64 84 0
66 -64 -84 0
-66 64 -84 0
-66 -64 84 0
68 67 70 0
68 -67 -70 0
-68 67 -70 0
-68 -67 70 0
69 67 87 0
69 -67 -87 0
-69 67 -87 0
-69 -67 87 0
71 70 73 0
71 -70 -73 0
-71 70 -73 0
-71 -70 73 0
72 70 90 0
72 -70 -90 0
-72 70 -90 0
-72 -70 90 0
74 73 76 0
74 -73 -76 0
-74 73 -76 0
-74 -73 76 0
75 73 93 0
75 -73 -93 0
-75 73 -93 0
-75 -73 93 0
77 76 79 0
77 -76 -79 0
-77 76 -79 0
-77 -76 79 0
78 76 96 0
78 -76 -96 0
-78 76 -96 0
-78 -76 96 0
80 79 99 0
80 -79 -99 0
-80 79 -99 0
-80 -79 99 0
82 81 84 0
82 -81 -84 0
-82 81 -84 0
-82 -81 84 0
83 81 101 0
83 -81 -101 0
-83 81 -101 0
-83 -81 101 0
85 84 87 0
85 -84 -87 0
-85 84 -87 0
-85 -84 87 0
86 84 104 0
86 -84 -104 0
-86 84 -104 0
-86 -84 104 0
88 87 90 0
88 -87 -90 0
-88 87 -90 0
-88 -87 90 0
89 87 107 0
89 -87 -107 0
-89 87 -107 0
-89 -87 107 0
91 90 93 0
91 -90 -93 0
-91 90 -93 0
-91 -90 93 0
92 90 110 0
92 -90 -110 0
-92 90 -110 0
-92 -90 110 0
94 93 96 0
94 -93 -96 0
-94 93 -96 0
-94 -93 96 0
95 93 113 0
95 -93 -113 0
-95 93 -113 0
-95 -93 113 0
97 96 99 0
97 -96 -99 0
-97 96 -99 0
-97 -96 99 0
98 96 116 0
98 -96 -116 0
-98 96 -116 0
-98 -96 116 0
100 99 119 0
100 -99 -119 0
-100 99 -119 0
-100 -99 119 0
102 101 104 0
102 -101 -104 0
-102 101 -104 0
-102 -101 104 0
103 101 121 0
103 -101 -121 0
-103 101 -121 0
-103 -101 121 0
105 104 107 0
105 -104 -107 0
-105 104 -107 0
-105 -104 107 0
106 104 123 0
106 -104 -123 0
-106 104 -123 0
-106 -104 123 0
108 107 110 0
108 -107 -110 0
-108 107 -110 0
-108 -107 110 0
109 107 125 0
109 -107 -125 0
-109 107 -125 0
-109 -107 125 0
111 110 113 0
111 -110 -113 0
-111 110 -113 0
-111 -110 113 0
112 110 127 0
112 -110 -127 0
-112 110 -127 0
-112 -110 127 0
114 113 116 0
114 -113 -116 0
-114 113 -116 0
-114 -113 116 0
115 113 129 0
115 -113 -129 0
-115 113 -129 0
-115 -113 129 0
117 116 119 0
117 -116 -119 0
-117 116 -119 0
-117 -116 119 0
118 116 131 0
118 -116 -131 0
-118 116 -131 0
-118 -116 131 0
120 119 133 0
120 -119 -133 0
-120 119 -133 0
-120 -119 133 0
122 121 123 0
122 -121 -123 0
-122 121 -123 0
-122 -121 123 0
124 123 125 0
124 -123 -125 0
-124 123 -125 0
-124 -123 125 0
126 125 127 0
126 -125 -127 0
-126 125 -127 0
-126 -125 127 0
128 127 129 0
128 -127 -129 0
-128 127 -129 0
-128 -127 129 0
130 129 131 0
130 -129 -131 0
-130 129 -131 0
-130 -129 131 0
132 131 133 0
132 -131 -133 0
-132 131 -133 0
-132 -131 133 0
